54
1 0 9
2 0 5
2 1 4
3 0 11
3 1 3
3 2 11
4 0 6
4 1 6
4 2 5
4 3 7
5 0 5
5 1 11
5 2 1
5 3 6
5 4 7
6 0 3
6 1 3
6 2 1
6 3 12
6 4 10
6 5 3
7 0 1
7 1 11
7 2 6
7 3 10
7 4 8
7 5 8
7 6 2
8 0 13
8 1 8
8 2 5
8 3 10
8 4 11
8 5 10
8 6 11
8 7 2
9 0 2
9 1 3
9 2 10
9 3 9
9 4 3
9 5 10
9 6 2
9 7 8
9 8 3
10 0 3
10 1 9
10 2 13
10 3 5
10 4 12
10 5 7
10 6 2
10 7 8
10 8 8
10 9 10
11 0 11
11 1 13
11 2 13
11 3 12
11 4 8
11 5 6
11 6 4
11 7 5
11 8 9
11 9 13
11 10 1
12 0 10
12 1 10
12 2 4
12 3 10
12 4 12
12 5 8
12 6 9
12 7 1
12 8 4
12 9 2
12 10 7
12 11 10
13 0 1
13 1 2
13 2 3
13 3 13
13 4 8
13 5 13
13 6 8
13 7 8
13 8 2
13 9 1
13 10 8
13 11 4
13 12 13
14 0 8
14 1 9
14 2 7
14 3 8
14 4 12
14 5 5
14 6 4
14 7 13
14 8 11
14 9 1
14 10 8
14 11 9
14 12 13
14 13 2
15 0 13
15 1 12
15 2 8
15 3 8
15 4 1
15 5 4
15 6 1
15 7 13
15 8 4
15 9 11
15 10 13
15 11 6
15 12 7
15 13 1
15 14 7
16 0 7
16 1 4
16 2 10
16 3 13
16 4 2
16 5 13
16 6 4
16 7 7
16 8 10
16 9 8
16 10 3
16 11 4
16 12 9
16 13 13
16 14 5
16 15 4
17 0 8
17 1 7
17 2 8
17 3 2
17 4 9
17 5 2
17 6 2
17 7 5
17 8 6
17 9 13
17 10 4
17 11 9
17 12 5
17 13 12
17 14 4
17 15 8
17 16 3
18 0 6
18 1 7
18 2 5
18 3 8
18 4 10
18 5 3
18 6 3
18 7 5
18 8 3
18 9 4
18 10 5
18 11 3
18 12 7
18 13 13
18 14 13
18 15 5
18 16 9
18 17 12
19 0 12
19 1 1
19 2 10
19 3 11
19 4 12
19 5 10
19 6 7
19 7 10
19 8 5
19 9 2
19 10 2
19 11 12
19 12 9
19 13 6
19 14 2
19 15 10
19 16 10
19 17 13
19 18 9
20 0 1
20 1 13
20 2 10
20 3 1
20 4 9
20 5 13
20 6 5
20 7 12
20 8 7
20 9 12
20 10 5
20 11 8
20 12 12
20 13 5
20 14 4
20 15 7
20 16 6
20 17 4
20 18 5
20 19 7
21 0 11
21 1 12
21 2 8
21 3 9
21 4 7
21 5 13
21 6 6
21 7 7
21 8 10
21 9 9
21 10 6
21 11 11
21 12 10
21 13 13
21 14 11
21 15 4
21 16 2
21 17 1
21 18 9
21 19 11
21 20 8
22 0 10
22 1 5
22 2 4
22 3 3
22 4 3
22 5 2
22 6 7
22 7 4
22 8 6
22 9 1
22 10 10
22 11 2
22 12 7
22 13 10
22 14 5
22 15 8
22 16 7
22 17 5
22 18 7
22 19 1
22 20 13
22 21 3
23 0 12
23 1 11
23 2 8
23 3 8
23 4 8
23 5 6
23 6 11
23 7 13
23 8 12
23 9 11
23 10 9
23 11 7
23 12 11
23 13 10
23 14 1
23 15 3
23 16 7
23 17 5
23 18 10
23 19 8
23 20 10
23 21 7
23 22 13
24 0 5
24 1 13
24 2 4
24 3 3
24 4 9
24 5 6
24 6 13
24 7 10
24 8 5
24 9 7
24 10 2
24 11 3
24 12 2
24 13 5
24 14 8
24 15 7
24 16 10
24 17 11
24 18 13
24 19 2
24 20 1
24 21 10
24 22 12
24 23 8
25 0 1
25 1 9
25 2 7
25 3 9
25 4 11
25 5 2
25 6 10
25 7 4
25 8 5
25 9 8
25 10 3
25 11 3
25 12 10
25 13 4
25 14 7
25 15 4
25 16 13
25 17 9
25 18 13
25 19 3
25 20 7
25 21 8
25 22 8
25 23 9
25 24 8
26 0 9
26 1 9
26 2 13
26 3 1
26 4 8
26 5 4
26 6 4
26 7 2
26 8 7
26 9 7
26 10 2
26 11 6
26 12 2
26 13 11
26 14 9
26 15 4
26 16 1
26 17 5
26 18 9
26 19 13
26 20 1
26 21 7
26 22 11
26 23 11
26 24 3
26 25 7
27 0 11
27 1 9
27 2 12
27 3 4
27 4 4
27 5 7
27 6 8
27 7 9
27 8 3
27 9 6
27 10 3
27 11 6
27 12 5
27 13 9
27 14 10
27 15 7
27 16 10
27 17 3
27 18 12
27 19 3
27 20 8
27 21 7
27 22 4
27 23 2
27 24 8
27 25 5
27 26 8
28 0 5
28 1 11
28 2 5
28 3 4
28 4 4
28 5 13
28 6 5
28 7 13
28 8 7
28 9 9
28 10 9
28 11 10
28 12 4
28 13 13
28 14 13
28 15 3
28 16 3
28 17 11
28 18 4
28 19 7
28 20 4
28 21 7
28 22 5
28 23 12
28 24 8
28 25 5
28 26 11
28 27 10
29 0 5
29 1 12
29 2 10
29 3 7
29 4 11
29 5 4
29 6 8
29 7 7
29 8 7
29 9 6
29 10 1
29 11 1
29 12 7
29 13 6
29 14 3
29 15 6
29 16 10
29 17 9
29 18 2
29 19 4
29 20 5
29 21 1
29 22 5
29 23 8
29 24 2
29 25 13
29 26 13
29 27 4
29 28 12
30 0 4
30 1 12
30 2 9
30 3 10
30 4 3
30 5 9
30 6 9
30 7 3
30 8 5
30 9 3
30 10 8
30 11 9
30 12 6
30 13 10
30 14 7
30 15 7
30 16 3
30 17 4
30 18 11
30 19 12
30 20 2
30 21 11
30 22 11
30 23 4
30 24 4
30 25 10
30 26 3
30 27 7
30 28 8
30 29 9
31 0 7
31 1 13
31 2 7
31 3 4
31 4 11
31 5 4
31 6 9
31 7 2
31 8 11
31 9 1
31 10 6
31 11 13
31 12 10
31 13 9
31 14 11
31 15 2
31 16 12
31 17 13
31 18 10
31 19 12
31 20 9
31 21 11
31 22 7
31 23 8
31 24 1
31 25 5
31 26 9
31 27 5
31 28 2
31 29 5
31 30 8
32 0 5
32 1 6
32 2 13
32 3 13
32 4 5
32 5 8
32 6 11
32 7 3
32 8 7
32 9 13
32 10 3
32 11 13
32 12 3
32 13 12
32 14 5
32 15 8
32 16 1
32 17 8
32 18 1
32 19 9
32 20 12
32 21 9
32 22 6
32 23 6
32 24 4
32 25 7
32 26 9
32 27 1
32 28 9
32 29 1
32 30 7
32 31 9
33 0 6
33 1 1
33 2 8
33 3 3
33 4 6
33 5 9
33 6 3
33 7 13
33 8 10
33 9 6
33 10 7
33 11 8
33 12 5
33 13 5
33 14 2
33 15 5
33 16 11
33 17 1
33 18 2
33 19 8
33 20 11
33 21 11
33 22 10
33 23 5
33 24 2
33 25 10
33 26 8
33 27 4
33 28 2
33 29 6
33 30 2
33 31 1
33 32 9
34 0 8
34 1 8
34 2 5
34 3 2
34 4 1
34 5 12
34 6 9
34 7 9
34 8 10
34 9 12
34 10 8
34 11 1
34 12 13
34 13 12
34 14 8
34 15 1
34 16 8
34 17 11
34 18 9
34 19 9
34 20 13
34 21 1
34 22 3
34 23 7
34 24 3
34 25 5
34 26 6
34 27 6
34 28 3
34 29 2
34 30 7
34 31 13
34 32 2
34 33 4
35 0 12
35 1 13
35 2 12
35 3 4
35 4 1
35 5 9
35 6 9
35 7 4
35 8 4
35 9 11
35 10 9
35 11 13
35 12 3
35 13 4
35 14 2
35 15 12
35 16 1
35 17 1
35 18 2
35 19 11
35 20 5
35 21 12
35 22 3
35 23 3
35 24 5
35 25 2
35 26 11
35 27 6
35 28 12
35 29 2
35 30 12
35 31 8
35 32 13
35 33 9
35 34 8
36 0 3
36 1 4
36 2 13
36 3 12
36 4 5
36 5 6
36 6 3
36 7 11
36 8 1
36 9 13
36 10 6
36 11 4
36 12 4
36 13 2
36 14 12
36 15 10
36 16 7
36 17 8
36 18 11
36 19 10
36 20 1
36 21 3
36 22 9
36 23 5
36 24 10
36 25 8
36 26 3
36 27 11
36 28 2
36 29 7
36 30 5
36 31 6
36 32 13
36 33 4
36 34 10
36 35 3
37 0 9
37 1 11
37 2 8
37 3 11
37 4 1
37 5 9
37 6 13
37 7 4
37 8 12
37 9 12
37 10 9
37 11 5
37 12 8
37 13 13
37 14 10
37 15 7
37 16 9
37 17 9
37 18 3
37 19 13
37 20 5
37 21 11
37 22 13
37 23 8
37 24 10
37 25 2
37 26 7
37 27 10
37 28 6
37 29 6
37 30 3
37 31 13
37 32 2
37 33 6
37 34 13
37 35 3
37 36 13
38 0 10
38 1 6
38 2 10
38 3 5
38 4 11
38 5 10
38 6 12
38 7 7
38 8 9
38 9 13
38 10 10
38 11 2
38 12 5
38 13 10
38 14 2
38 15 4
38 16 13
38 17 3
38 18 9
38 19 10
38 20 4
38 21 9
38 22 7
38 23 10
38 24 6
38 25 3
38 26 9
38 27 8
38 28 11
38 29 4
38 30 2
38 31 11
38 32 8
38 33 3
38 34 8
38 35 3
38 36 8
38 37 11
39 0 12
39 1 4
39 2 3
39 3 5
39 4 3
39 5 6
39 6 4
39 7 11
39 8 6
39 9 12
39 10 5
39 11 2
39 12 13
39 13 8
39 14 5
39 15 8
39 16 9
39 17 3
39 18 4
39 19 5
39 20 2
39 21 2
39 22 12
39 23 9
39 24 1
39 25 11
39 26 2
39 27 2
39 28 2
39 29 9
39 30 13
39 31 8
39 32 5
39 33 11
39 34 9
39 35 10
39 36 12
39 37 9
39 38 4
40 0 7
40 1 8
40 2 2
40 3 5
40 4 12
40 5 12
40 6 12
40 7 11
40 8 11
40 9 9
40 10 3
40 11 4
40 12 11
40 13 12
40 14 3
40 15 10
40 16 12
40 17 10
40 18 10
40 19 12
40 20 11
40 21 10
40 22 7
40 23 2
40 24 8
40 25 9
40 26 5
40 27 7
40 28 4
40 29 2
40 30 7
40 31 5
40 32 3
40 33 2
40 34 2
40 35 8
40 36 11
40 37 3
40 38 7
40 39 11
41 0 13
41 1 8
41 2 6
41 3 10
41 4 5
41 5 13
41 6 10
41 7 9
41 8 3
41 9 12
41 10 4
41 11 11
41 12 2
41 13 13
41 14 2
41 15 11
41 16 5
41 17 5
41 18 11
41 19 8
41 20 8
41 21 7
41 22 7
41 23 4
41 24 10
41 25 9
41 26 4
41 27 12
41 28 1
41 29 13
41 30 12
41 31 3
41 32 6
41 33 11
41 34 3
41 35 1
41 36 1
41 37 11
41 38 8
41 39 3
41 40 11
42 0 8
42 1 10
42 2 4
42 3 8
42 4 4
42 5 3
42 6 3
42 7 1
42 8 3
42 9 8
42 10 12
42 11 10
42 12 8
42 13 12
42 14 9
42 15 1
42 16 4
42 17 2
42 18 3
42 19 10
42 20 7
42 21 10
42 22 9
42 23 2
42 24 5
42 25 12
42 26 6
42 27 5
42 28 1
42 29 11
42 30 5
42 31 7
42 32 9
42 33 2
42 34 10
42 35 10
42 36 1
42 37 11
42 38 11
42 39 8
42 40 12
42 41 2
43 0 8
43 1 13
43 2 1
43 3 4
43 4 8
43 5 4
43 6 12
43 7 3
43 8 6
43 9 7
43 10 1
43 11 3
43 12 2
43 13 11
43 14 2
43 15 9
43 16 13
43 17 11
43 18 8
43 19 8
43 20 9
43 21 12
43 22 12
43 23 12
43 24 3
43 25 8
43 26 7
43 27 3
43 28 4
43 29 5
43 30 6
43 31 4
43 32 10
43 33 12
43 34 4
43 35 10
43 36 13
43 37 9
43 38 1
43 39 13
43 40 6
43 41 1
43 42 2
44 0 5
44 1 1
44 2 9
44 3 9
44 4 2
44 5 8
44 6 4
44 7 5
44 8 11
44 9 12
44 10 7
44 11 10
44 12 9
44 13 4
44 14 13
44 15 5
44 16 9
44 17 8
44 18 4
44 19 4
44 20 12
44 21 8
44 22 12
44 23 9
44 24 13
44 25 1
44 26 5
44 27 9
44 28 11
44 29 7
44 30 1
44 31 11
44 32 10
44 33 4
44 34 2
44 35 3
44 36 9
44 37 10
44 38 8
44 39 5
44 40 4
44 41 12
44 42 1
44 43 7
45 0 9
45 1 1
45 2 13
45 3 5
45 4 11
45 5 6
45 6 7
45 7 1
45 8 1
45 9 12
45 10 8
45 11 2
45 12 9
45 13 7
45 14 3
45 15 13
45 16 11
45 17 3
45 18 3
45 19 4
45 20 4
45 21 13
45 22 4
45 23 2
45 24 1
45 25 5
45 26 5
45 27 6
45 28 6
45 29 10
45 30 11
45 31 12
45 32 3
45 33 2
45 34 7
45 35 3
45 36 12
45 37 11
45 38 9
45 39 11
45 40 7
45 41 8
45 42 5
45 43 6
45 44 10
46 0 5
46 1 13
46 2 10
46 3 9
46 4 2
46 5 2
46 6 4
46 7 8
46 8 3
46 9 3
46 10 10
46 11 6
46 12 13
46 13 5
46 14 7
46 15 5
46 16 7
46 17 12
46 18 5
46 19 8
46 20 2
46 21 3
46 22 8
46 23 3
46 24 4
46 25 7
46 26 4
46 27 13
46 28 11
46 29 7
46 30 9
46 31 3
46 32 10
46 33 1
46 34 9
46 35 10
46 36 12
46 37 3
46 38 4
46 39 3
46 40 4
46 41 3
46 42 2
46 43 4
46 44 6
46 45 10
47 0 10
47 1 12
47 2 1
47 3 13
47 4 6
47 5 5
47 6 3
47 7 9
47 8 2
47 9 9
47 10 6
47 11 12
47 12 10
47 13 13
47 14 9
47 15 13
47 16 6
47 17 1
47 18 13
47 19 6
47 20 12
47 21 10
47 22 13
47 23 6
47 24 2
47 25 4
47 26 6
47 27 8
47 28 12
47 29 5
47 30 11
47 31 9
47 32 6
47 33 12
47 34 2
47 35 3
47 36 4
47 37 11
47 38 5
47 39 12
47 40 12
47 41 13
47 42 3
47 43 7
47 44 11
47 45 8
47 46 5
48 0 3
48 1 7
48 2 4
48 3 5
48 4 7
48 5 2
48 6 12
48 7 9
48 8 6
48 9 5
48 10 10
48 11 11
48 12 9
48 13 10
48 14 4
48 15 5
48 16 9
48 17 2
48 18 12
48 19 5
48 20 5
48 21 13
48 22 2
48 23 12
48 24 7
48 25 11
48 26 5
48 27 7
48 28 3
48 29 7
48 30 6
48 31 11
48 32 6
48 33 5
48 34 6
48 35 2
48 36 3
48 37 6
48 38 9
48 39 3
48 40 5
48 41 7
48 42 9
48 43 3
48 44 8
48 45 4
48 46 13
48 47 6
49 0 11
49 1 12
49 2 8
49 3 9
49 4 3
49 5 1
49 6 4
49 7 11
49 8 9
49 9 5
49 10 6
49 11 4
49 12 7
49 13 1
49 14 8
49 15 11
49 16 1
49 17 1
49 18 13
49 19 6
49 20 6
49 21 5
49 22 8
49 23 2
49 24 10
49 25 9
49 26 3
49 27 5
49 28 4
49 29 1
49 30 13
49 31 4
49 32 6
49 33 1
49 34 10
49 35 11
49 36 2
49 37 10
49 38 10
49 39 1
49 40 10
49 41 6
49 42 3
49 43 4
49 44 8
49 45 9
49 46 9
49 47 11
49 48 12
50 0 1
50 1 11
50 2 13
50 3 9
50 4 5
50 5 6
50 6 10
50 7 6
50 8 13
50 9 1
50 10 2
50 11 4
50 12 7
50 13 13
50 14 4
50 15 5
50 16 6
50 17 3
50 18 11
50 19 6
50 20 7
50 21 10
50 22 3
50 23 7
50 24 2
50 25 3
50 26 3
50 27 6
50 28 12
50 29 5
50 30 13
50 31 1
50 32 8
50 33 7
50 34 4
50 35 3
50 36 7
50 37 12
50 38 8
50 39 5
50 40 8
50 41 11
50 42 6
50 43 11
50 44 11
50 45 13
50 46 3
50 47 6
50 48 10
50 49 12
51 0 2
51 1 7
51 2 4
51 3 10
51 4 8
51 5 10
51 6 2
51 7 11
51 8 3
51 9 6
51 10 10
51 11 8
51 12 9
51 13 9
51 14 1
51 15 13
51 16 4
51 17 7
51 18 7
51 19 8
51 20 12
51 21 11
51 22 9
51 23 11
51 24 2
51 25 7
51 26 11
51 27 1
51 28 1
51 29 8
51 30 1
51 31 6
51 32 4
51 33 11
51 34 3
51 35 9
51 36 2
51 37 7
51 38 1
51 39 11
51 40 4
51 41 5
51 42 9
51 43 5
51 44 1
51 45 2
51 46 4
51 47 6
51 48 7
51 49 12
51 50 3
52 0 1
52 1 11
52 2 13
52 3 5
52 4 10
52 5 10
52 6 5
52 7 9
52 8 8
52 9 11
52 10 12
52 11 1
52 12 6
52 13 5
52 14 7
52 15 9
52 16 11
52 17 1
52 18 8
52 19 8
52 20 10
52 21 11
52 22 8
52 23 5
52 24 11
52 25 3
52 26 7
52 27 13
52 28 6
52 29 9
52 30 6
52 31 2
52 32 5
52 33 12
52 34 12
52 35 4
52 36 12
52 37 8
52 38 9
52 39 7
52 40 5
52 41 9
52 42 4
52 43 10
52 44 1
52 45 2
52 46 8
52 47 12
52 48 5
52 49 1
52 50 12
52 51 7
53 0 3
53 1 9
53 2 5
53 3 7
53 4 11
53 5 11
53 6 1
53 7 4
53 8 7
53 9 13
53 10 2
53 11 12
53 12 5
53 13 7
53 14 9
53 15 3
53 16 11
53 17 8
53 18 1
53 19 3
53 20 8
53 21 7
53 22 6
53 23 6
53 24 1
53 25 6
53 26 11
53 27 4
53 28 13
53 29 3
53 30 1
53 31 8
53 32 7
53 33 11
53 34 5
53 35 3
53 36 1
53 37 5
53 38 6
53 39 1
53 40 5
53 41 8
53 42 5
53 43 6
53 44 5
53 45 3
53 46 12
53 47 13
53 48 6
53 49 4
53 50 2
53 51 5
53 52 11
